# Solution for model count
# Objective value = 9
z#1 0
z#2 1
z#3 0
z#4 0
z#5 1
z#6 0
z#7 1
z#8 0
z#9 0
z#10 1
z#11 0
z#12 0
z#13 0
z#14 1
z#15 1
z#16 0
z#17 1
z#18 1
z#19 0
z#20 1
z#21 0
z#22 0
z#23 0
z#24 0
x#24 0
x#23 0
x#22 0
x#21 0
x#20 1015
x#19 0
x#18 432
x#17 1523
x#16 0
x#15 1815
x#14 47
x#13 0
x#12 0
x#11 0
x#10 1081
x#9 0
x#8 0
x#7 1070
x#6 0
x#5 2089
x#4 0
x#3 0
x#2 928
x#1 0
